
******************************************************************************
This program contains Ipopt, a library for large-scale nonlinear optimization.
 Ipopt is released as open source code under the Eclipse Public License (EPL).
         For more information visit http://projects.coin-or.org/Ipopt
******************************************************************************

This is Ipopt version 3.12.6, running with linear solver ma57.

Number of nonzeros in equality constraint Jacobian...:    13421
Number of nonzeros in inequality constraint Jacobian.:     2982
Number of nonzeros in Lagrangian Hessian.............:      357

Total number of variables............................:     1515
                     variables with only lower bounds:        0
                variables with lower and upper bounds:      595
                     variables with only upper bounds:        0
Total number of equality constraints.................:     1065
Total number of inequality constraints...............:     1286
        inequality constraints with only lower bounds:        0
   inequality constraints with lower and upper bounds:        0
        inequality constraints with only upper bounds:     1286

iter    objective    inf_pr   inf_du lg(mu)  ||d||  lg(rg) alpha_du alpha_pr  ls
   0 -5.1478218e+00 1.67e+03 1.00e+02  -1.0 0.00e+00    -  0.00e+00 0.00e+00   0
Reallocating memory for MA57: lfact (217504)
   1 -2.8912187e+03 1.67e+03 1.00e+02  -1.0 1.70e+03    -  4.54e-04 9.64e-05f  1
   2 -3.2896367e+04 1.67e+03 9.99e+01  -1.0 1.71e+03    -  5.76e-04 1.00e-03f  1
   3 -1.3201201e+05 1.66e+03 9.96e+01  -1.0 1.71e+03    -  1.03e-03 3.33e-03f  1
   4 -2.6313394e+05 1.65e+03 9.91e+01  -1.0 1.71e+03    -  3.43e-03 4.43e-03f  1
   5 -6.2937440e+05 1.63e+03 9.79e+01  -1.0 1.69e+03    -  5.91e-03 1.25e-02f  1
   6 -1.2867366e+06 1.60e+03 9.56e+01  -1.0 1.67e+03    -  1.45e-02 2.32e-02f  1
   7 -2.7129937e+06 1.51e+03 9.06e+01  -1.0 1.63e+03    -  1.41e-02 5.36e-02f  1
   8 -3.9636291e+06 1.43e+03 8.59e+01  -1.0 1.54e+03    -  2.00e-02 5.25e-02f  1
   9 -4.3450904e+06 1.41e+03 8.44e+01  -1.0 1.46e+03    -  1.36e-02 1.75e-02f  1
iter    objective    inf_pr   inf_du lg(mu)  ||d||  lg(rg) alpha_du alpha_pr  ls
  10 -4.6059386e+06 1.39e+03 8.33e+01  -1.0 1.43e+03    -  1.03e-02 1.24e-02f  1
  11 -4.8130141e+06 1.37e+03 8.25e+01  -1.0 1.41e+03    -  8.39e-03 1.01e-02f  1
  12 -4.9801795e+06 1.36e+03 8.18e+01  -1.0 1.39e+03    -  9.00e-03 8.32e-03f  1
  13 -5.1355019e+06 1.35e+03 8.11e+01  -1.0 1.38e+03    -  1.10e-02 7.87e-03f  1
  14 -5.3000104e+06 1.34e+03 8.04e+01  -1.0 1.36e+03    -  1.32e-02 8.48e-03f  1
  15 -5.4820624e+06 1.33e+03 7.97e+01  -1.0 1.34e+03    -  1.50e-02 9.57e-03f  1
  16 -5.6903257e+06 1.31e+03 7.88e+01  -1.0 1.33e+03    -  1.74e-02 1.12e-02f  1
  17 -5.9398583e+06 1.30e+03 7.77e+01  -1.0 1.31e+03    -  2.12e-02 1.37e-02f  1
  18 -6.2535067e+06 1.27e+03 7.63e+01  -1.0 1.29e+03    -  2.69e-02 1.78e-02f  1
  19 -6.6296574e+06 1.24e+03 7.46e+01  -1.0 1.25e+03    -  1.34e-02 2.22e-02f  1
iter    objective    inf_pr   inf_du lg(mu)  ||d||  lg(rg) alpha_du alpha_pr  ls
  20 -7.2246334e+06 1.20e+03 7.19e+01  -1.0 1.20e+03    -  7.91e-03 3.70e-02f  1
  21 -7.2599292e+06 1.20e+03 7.17e+01  -1.0 1.12e+03    -  1.31e-02 2.34e-03f  1
  22 -7.5951861e+06 1.17e+03 7.01e+01  -1.0 1.14e+03    -  1.29e-02 2.25e-02f  1
  23 -7.7892784e+06 1.15e+03 6.91e+01  -1.0 1.08e+03    -  1.46e-02 1.36e-02f  1
  24 -8.1480988e+06 1.12e+03 6.73e+01  -1.0 1.06e+03    -  5.50e-03 2.61e-02f  1
  25 -8.1644361e+06 1.12e+03 6.72e+01  -1.0 1.08e+03    -  5.63e-02 1.23e-03f  1
  26 -9.1689991e+06 1.03e+03 6.20e+01  -1.0 1.11e+03    -  2.18e-02 7.83e-02f  1
  27 -1.0250441e+07 9.30e+02 5.58e+01  -1.0 1.03e+03    -  2.00e-02 9.98e-02f  1
  28 -1.0800090e+07 8.73e+02 5.24e+01  -1.0 9.37e+02    -  6.36e-02 6.11e-02f  1
  29 -1.1126304e+07 8.38e+02 5.03e+01  -1.0 8.87e+02    -  2.62e-02 4.07e-02f  1
iter    objective    inf_pr   inf_du lg(mu)  ||d||  lg(rg) alpha_du alpha_pr  ls
  30 -1.1438010e+07 8.02e+02 4.81e+01  -1.0 8.53e+02    -  3.14e-02 4.22e-02f  1
  31 -1.1753976e+07 7.65e+02 4.59e+01  -1.0 8.17e+02    -  4.50e-02 4.66e-02f  1
  32 -1.2080899e+07 7.24e+02 4.35e+01  -1.0 7.81e+02    -  6.27e-02 5.30e-02f  1
  33 -1.2412174e+07 6.81e+02 4.09e+01  -1.0 7.42e+02    -  9.56e-02 5.99e-02f  1
  34 -1.3133049e+07 5.76e+02 3.46e+01  -1.0 6.99e+02    -  1.61e-01 1.54e-01f  1
  35 -1.3623290e+07 4.93e+02 2.96e+01  -1.0 6.03e+02    -  1.17e-01 1.44e-01f  1
  36 -1.4028984e+07 4.13e+02 2.48e+01  -1.0 5.25e+02    -  7.14e-02 1.63e-01f  1
  37 -1.4380958e+07 3.29e+02 1.97e+01  -1.0 4.52e+02    -  1.20e-01 2.02e-01f  1
  38 -1.4635724e+07 2.53e+02 1.52e+01  -1.0 3.70e+02    -  9.55e-02 2.31e-01f  1
  39 -1.4797058e+07 1.92e+02 1.15e+01  -1.0 2.94e+02    -  1.94e-01 2.43e-01f  1
iter    objective    inf_pr   inf_du lg(mu)  ||d||  lg(rg) alpha_du alpha_pr  ls
  40 -1.4987452e+07 7.56e+01 8.91e+00  -1.0 2.46e+02    -  1.76e-01 6.06e-01f  1
  41 -1.5023451e+07 2.71e+01 1.25e+01  -1.0 1.13e+02    -  3.02e-01 6.42e-01f  1
  42 -1.5030445e+07 9.30e+00 1.63e+01  -1.0 4.95e+01    -  2.62e-01 6.57e-01f  1
  43 -1.5032169e+07 3.36e+00 1.39e+01  -1.0 2.93e+01    -  2.86e-01 6.39e-01f  1
  44 -1.5032520e+07 2.26e+00 9.25e+00  -1.0 1.92e+01    -  2.08e-01 3.26e-01f  1
  45 -1.5032924e+07 8.15e-01 3.05e+01  -1.0 1.53e+01    -  1.66e-01 6.40e-01f  1
  46 -1.5032997e+07 5.61e-01 4.70e+01  -1.0 1.27e+01    -  7.49e-01 3.12e-01f  1
  47 -1.5033086e+07 2.27e-01 1.62e+00  -1.0 1.49e+01    -  5.15e-01 5.95e-01f  1
  48 -1.5033111e+07 1.03e-01 4.75e+01  -1.0 8.44e+00    -  6.31e-01 5.45e-01f  1
  49 -1.5033117e+07 7.91e-02 5.70e+02  -1.0 6.10e+00    -  6.85e-01 2.35e-01f  2
iter    objective    inf_pr   inf_du lg(mu)  ||d||  lg(rg) alpha_du alpha_pr  ls
  50 -1.5033126e+07 5.12e-02 5.88e+02  -1.0 1.35e+01    -  4.94e-01 3.53e-01f  2
  51 -1.5033136e+07 9.33e-03 5.19e+02  -1.0 6.95e+00    -  9.90e-01 8.18e-01h  1
  52 -1.5033137e+07 5.00e-03 7.07e+03  -1.0 2.38e+00    -  9.90e-01 4.65e-01h  1
  53 -1.5033137e+07 2.18e-03 1.31e+04  -1.0 1.20e+00    -  9.93e-01 5.64e-01h  1
  54 -1.5033137e+07 6.74e-04 1.92e+04  -1.0 5.32e-01    -  1.00e+00 6.91e-01h  1
  55 -1.5033138e+07 2.75e-04 5.72e+04  -1.0 1.64e-01    -  1.00e+00 5.92e-01h  1
  56 -1.5033138e+07 1.98e-05 1.64e+04  -1.0 6.68e-02    -  1.00e+00 9.28e-01h  1
  57 -1.5033138e+07 9.92e-06 1.12e+05  -1.0 4.83e-03    -  1.00e+00 5.00e-01f  2
  58 -1.5033138e+07 7.67e-10 1.00e-06  -1.0 2.41e-03    -  1.00e+00 1.00e+00h  1
  59 -1.5033467e+07 1.09e-10 2.04e+04  -3.8 3.90e+00    -  8.28e-01 7.94e-01f  1
iter    objective    inf_pr   inf_du lg(mu)  ||d||  lg(rg) alpha_du alpha_pr  ls
  60 -1.5033514e+07 5.12e-11 3.08e+04  -3.8 7.95e+00    -  7.39e-01 5.35e-01f  1
Reallocating memory for MA57: lfact (228410)
  61 -1.5033538e+07 1.98e-11 1.29e+04  -3.8 7.94e+00    -  6.39e-01 6.08e-01f  1
  62 -1.5033551e+07 5.00e-12 1.00e+03  -3.8 6.25e+00    -  5.58e-01 7.65e-01f  1
  63 -1.5033555e+07 1.70e-12 5.20e+02  -3.8 2.54e+00    -  8.80e-01 1.00e+00f  1
  64 -1.5033555e+07 8.40e-13 1.50e-09  -3.8 5.43e-01    -  1.00e+00 1.00e+00f  1
Reallocating memory for MA57: lfact (240751)
  65 -1.5033556e+07 1.59e-12 7.89e-02  -5.7 3.76e-01    -  9.52e-01 9.52e-01f  1
Reallocating memory for MA57: lfact (253181)
  66 -1.5033556e+07 8.70e-13 7.02e+00  -5.7 1.74e-01    -  1.00e+00 8.37e-01f  1
  67 -1.5033556e+07 1.24e-12 1.86e+00  -5.7 9.53e-02    -  1.00e+00 7.40e-01f  1
  68 -1.5033556e+07 1.16e-12 1.84e-11  -5.7 4.24e-02    -  1.00e+00 1.00e+00f  1
  69 -1.5033556e+07 9.09e-13 1.88e+00  -8.6 1.68e-02    -  9.14e-01 7.49e-01f  1
iter    objective    inf_pr   inf_du lg(mu)  ||d||  lg(rg) alpha_du alpha_pr  ls
  70 -1.5033556e+07 9.43e-13 7.73e-01  -8.6 5.31e-03    -  8.85e-01 7.02e-01f  1
  71 -1.5033556e+07 1.41e-12 9.35e-02  -8.6 1.80e-03    -  7.41e-01 8.58e-01f  1
Reallocating memory for MA57: lfact (273513)
  72 -1.5033556e+07 9.47e-13 1.84e-01  -8.6 7.62e-04    -  1.79e-01 9.43e-01f  1
  73 -1.5033556e+07 2.03e-12 4.92e-02  -8.6 2.86e-04    -  7.14e-01 8.97e-01f  1
  74 -1.5033556e+07 1.11e-12 2.27e-13  -8.6 2.06e-04    -  1.00e+00 1.00e+00f  1

Number of Iterations....: 74

                                   (scaled)                 (unscaled)
Objective...............:  -2.0879939010772060e+06   -1.5033556087755883e+07
Dual infeasibility......:   2.2737367544323206e-13    1.6370904631912707e-12
Constraint violation....:   8.1856743605612792e-13    1.1079470674246750e-12
Complementarity.........:   8.5889219414686750e-09    6.1840237978574453e-08
Overall NLP error.......:   8.5889219414686750e-09    6.1840237978574453e-08


Number of objective function evaluations             = 78
Number of objective gradient evaluations             = 75
Number of equality constraint evaluations            = 78
Number of inequality constraint evaluations          = 78
Number of equality constraint Jacobian evaluations   = 75
Number of inequality constraint Jacobian evaluations = 75
Number of Lagrangian Hessian evaluations             = 74
Total CPU secs in IPOPT (w/o function evaluations)   =      0.760
Total CPU secs in NLP function evaluations           =      0.043

EXIT: Optimal Solution Found.
Note: The following floating-point exceptions are signalling: IEEE_OVERFLOW_FLAG IEEE_UNDERFLOW_FLAG IEEE_DENORMAL

************************ CUTEst statistics ************************


 Package used            :  IPOPT
 Problem                 :  MPC10     
 # variables             =            1530
 # constraints           =            2351
 # objective functions   =        0.1540000E+03
 # objective gradients   =        0.7600000E+02
 # objective Hessians    =        0.7500000E+02
 # Hessian-vector prdct  =        0.0000000E+00
 # constraints functions =        0.1550000E+03
 # constraints gradients =        0.7700000E+02
 # constraints Hessians  =        0.7500000E+02
 Exit code               =               0
 Final f                 =  -0.1503356E+08
 Set up time             =            0.05 seconds
 Solve time              =            0.99 seconds


******************************************************************

System Time =       0.7770000100 s.
